certificates/rado_a13_c137_N46.cnf
c Rad2 upper bound instance: x1 + 13*x2 - x3 = 137, interval [1,46]
p cnf 46 318
1 7 11 0
-1 -7 -11 0
1 12 20 0
-1 -12 -20 0
1 13 33 0
-1 -13 -33 0
1 14 46 0
-1 -14 -46 0
2 8 11 0
-2 -8 -11 0
2 12 21 0
-2 -12 -21 0
2 13 34 0
-2 -13 -34 0
3 9 11 0
-3 -9 -11 0
3 12 22 0
-3 -12 -22 0
3 13 35 0
-3 -13 -35 0
4 10 11 0
-4 -10 -11 0
4 12 23 0
-4 -12 -23 0
4 13 36 0
-4 -13 -36 0
5 11 0
-5 -11 0
5 12 24 0
-5 -12 -24 0
5 13 37 0
-5 -13 -37 0
6 11 12 0
-6 -11 -12 0
6 12 25 0
-6 -12 -25 0
6 13 38 0
-6 -13 -38 0
7 11 13 0
-7 -11 -13 0
7 12 26 0
-7 -12 -26 0
7 13 39 0
-7 -13 -39 0
1 8 10 0
-1 -8 -10 0
8 11 14 0
-8 -11 -14 0
8 12 27 0
-8 -12 -27 0
8 13 40 0
-8 -13 -40 0
2 9 10 0
-2 -9 -10 0
9 11 15 0
-9 -11 -15 0
9 12 28 0
-9 -12 -28 0
9 13 41 0
-9 -13 -41 0
3 10 0
-3 -10 0
10 11 16 0
-10 -11 -16 0
10 12 29 0
-10 -12 -29 0
10 13 42 0
-10 -13 -42 0
11 17 0
-11 -17 0
11 12 30 0
-11 -12 -30 0
11 13 43 0
-11 -13 -43 0
5 10 12 0
-5 -10 -12 0
11 12 18 0
-11 -12 -18 0
12 31 0
-12 -31 0
12 13 44 0
-12 -13 -44 0
6 10 13 0
-6 -10 -13 0
11 13 19 0
-11 -13 -19 0
12 13 32 0
-12 -13 -32 0
13 45 0
-13 -45 0
7 10 14 0
-7 -10 -14 0
11 14 20 0
-11 -14 -20 0
12 14 33 0
-12 -14 -33 0
13 14 46 0
-13 -14 -46 0
8 10 15 0
-8 -10 -15 0
11 15 21 0
-11 -15 -21 0
12 15 34 0
-12 -15 -34 0
9 10 16 0
-9 -10 -16 0
11 16 22 0
-11 -16 -22 0
12 16 35 0
-12 -16 -35 0
10 17 0
-10 -17 0
11 17 23 0
-11 -17 -23 0
12 17 36 0
-12 -17 -36 0
10 11 18 0
-10 -11 -18 0
11 18 24 0
-11 -18 -24 0
12 18 37 0
-12 -18 -37 0
10 12 19 0
-10 -12 -19 0
11 19 25 0
-11 -19 -25 0
12 19 38 0
-12 -19 -38 0
10 13 20 0
-10 -13 -20 0
11 20 26 0
-11 -20 -26 0
12 20 39 0
-12 -20 -39 0
1 9 21 0
-1 -9 -21 0
10 14 21 0
-10 -14 -21 0
11 21 27 0
-11 -21 -27 0
12 21 40 0
-12 -21 -40 0
2 9 22 0
-2 -9 -22 0
10 15 22 0
-10 -15 -22 0
11 22 28 0
-11 -22 -28 0
12 22 41 0
-12 -22 -41 0
3 9 23 0
-3 -9 -23 0
10 16 23 0
-10 -16 -23 0
11 23 29 0
-11 -23 -29 0
12 23 42 0
-12 -23 -42 0
4 9 24 0
-4 -9 -24 0
10 17 24 0
-10 -17 -24 0
11 24 30 0
-11 -24 -30 0
12 24 43 0
-12 -24 -43 0
5 9 25 0
-5 -9 -25 0
10 18 25 0
-10 -18 -25 0
11 25 31 0
-11 -25 -31 0
12 25 44 0
-12 -25 -44 0
6 9 26 0
-6 -9 -26 0
10 19 26 0
-10 -19 -26 0
11 26 32 0
-11 -26 -32 0
12 26 45 0
-12 -26 -45 0
7 9 27 0
-7 -9 -27 0
10 20 27 0
-10 -20 -27 0
11 27 33 0
-11 -27 -33 0
12 27 46 0
-12 -27 -46 0
8 9 28 0
-8 -9 -28 0
10 21 28 0
-10 -21 -28 0
11 28 34 0
-11 -28 -34 0
9 29 0
-9 -29 0
10 22 29 0
-10 -22 -29 0
11 29 35 0
-11 -29 -35 0
9 10 30 0
-9 -10 -30 0
10 23 30 0
-10 -23 -30 0
11 30 36 0
-11 -30 -36 0
9 11 31 0
-9 -11 -31 0
10 24 31 0
-10 -24 -31 0
11 31 37 0
-11 -31 -37 0
9 12 32 0
-9 -12 -32 0
10 25 32 0
-10 -25 -32 0
11 32 38 0
-11 -32 -38 0
9 13 33 0
-9 -13 -33 0
10 26 33 0
-10 -26 -33 0
11 33 39 0
-11 -33 -39 0
1 8 34 0
-1 -8 -34 0
9 14 34 0
-9 -14 -34 0
10 27 34 0
-10 -27 -34 0
11 34 40 0
-11 -34 -40 0
2 8 35 0
-2 -8 -35 0
9 15 35 0
-9 -15 -35 0
10 28 35 0
-10 -28 -35 0
11 35 41 0
-11 -35 -41 0
3 8 36 0
-3 -8 -36 0
9 16 36 0
-9 -16 -36 0
10 29 36 0
-10 -29 -36 0
11 36 42 0
-11 -36 -42 0
4 8 37 0
-4 -8 -37 0
9 17 37 0
-9 -17 -37 0
10 30 37 0
-10 -30 -37 0
11 37 43 0
-11 -37 -43 0
5 8 38 0
-5 -8 -38 0
9 18 38 0
-9 -18 -38 0
10 31 38 0
-10 -31 -38 0
11 38 44 0
-11 -38 -44 0
6 8 39 0
-6 -8 -39 0
9 19 39 0
-9 -19 -39 0
10 32 39 0
-10 -32 -39 0
11 39 45 0
-11 -39 -45 0
7 8 40 0
-7 -8 -40 0
9 20 40 0
-9 -20 -40 0
10 33 40 0
-10 -33 -40 0
11 40 46 0
-11 -40 -46 0
8 41 0
-8 -41 0
9 21 41 0
-9 -21 -41 0
10 34 41 0
-10 -34 -41 0
8 9 42 0
-8 -9 -42 0
9 22 42 0
-9 -22 -42 0
10 35 42 0
-10 -35 -42 0
8 10 43 0
-8 -10 -43 0
9 23 43 0
-9 -23 -43 0
10 36 43 0
-10 -36 -43 0
8 11 44 0
-8 -11 -44 0
9 24 44 0
-9 -24 -44 0
10 37 44 0
-10 -37 -44 0
8 12 45 0
-8 -12 -45 0
9 25 45 0
-9 -25 -45 0
10 38 45 0
-10 -38 -45 0
8 13 46 0
-8 -13 -46 0
9 26 46 0
-9 -26 -46 0
10 39 46 0
-10 -39 -46 0
