certificates/rado_a13_c137_N46.drat
8 13 -46 0
-45 -46 0
-13 -46 0
d -13 -14 -46 0
-46 0
8 42 -13 0
-11 -13 0
-13 0
45 0
14 0
8 0
-41 0
-12 0
-11 0
9 0
35 0
31 0
44 0
32 0
22 0
27 0
30 0
18 0
6 0
5 0
17 0
40 0
43 0
19 0
7 0
-28 0
-29 0
-42 0
-24 0
-25 0
-20 0
-23 0
-34 0
-2 0
-15 0
0
